p edge 345 330
e 1 2
e 1 3
e 1 4
e 1 5
e 1 6
e 1 7
e 1 8
e 1 9
e 1 10
e 1 11
e 1 12
e 1 13
e 1 14
e 1 15
e 1 16
e 1 17
e 1 18
e 1 19
e 1 20
e 21 22
e 21 23
e 21 24
e 21 25
e 21 26
e 21 27
e 21 28
e 21 29
e 21 30
e 21 31
e 21 32
e 21 33
e 21 34
e 21 35
e 21 36
e 21 37
e 21 38
e 21 39
e 21 40
e 21 41
e 21 42
e 21 43
e 21 44
e 45 46
e 45 47
e 45 48
e 45 49
e 45 50
e 45 51
e 45 52
e 45 53
e 45 54
e 45 55
e 45 56
e 45 57
e 45 58
e 45 59
e 45 60
e 45 61
e 45 62
e 45 63
e 45 64
e 45 65
e 45 66
e 45 67
e 45 68
e 45 69
e 45 70
e 45 71
e 45 72
e 45 73
e 45 74
e 45 75
e 76 77
e 76 78
e 76 79
e 76 80
e 76 81
e 76 82
e 76 83
e 76 84
e 76 85
e 76 86
e 76 87
e 76 88
e 76 89
e 76 90
e 76 91
e 76 92
e 76 93
e 76 94
e 76 95
e 76 96
e 76 97
e 76 98
e 76 99
e 76 100
e 76 101
e 76 102
e 76 103
e 76 104
e 76 105
e 106 107
e 106 108
e 106 109
e 106 110
e 106 111
e 106 112
e 106 113
e 106 114
e 106 115
e 106 116
e 106 117
e 106 118
e 106 119
e 106 120
e 106 121
e 106 122
e 106 123
e 106 124
e 106 125
e 106 126
e 106 127
e 106 128
e 129 130
e 129 131
e 129 132
e 129 133
e 129 134
e 129 135
e 129 136
e 129 137
e 129 138
e 129 139
e 129 140
e 129 141
e 129 142
e 129 143
e 129 144
e 129 145
e 129 146
e 147 148
e 147 149
e 147 150
e 147 151
e 147 152
e 147 153
e 147 154
e 147 155
e 147 156
e 147 157
e 147 158
e 147 159
e 147 160
e 147 161
e 147 162
e 147 163
e 147 164
e 147 165
e 166 167
e 166 168
e 166 169
e 166 170
e 166 171
e 166 172
e 166 173
e 166 174
e 166 175
e 166 176
e 166 177
e 166 178
e 166 179
e 166 180
e 166 181
e 166 182
e 166 183
e 166 184
e 166 185
e 186 187
e 186 188
e 186 189
e 186 190
e 186 191
e 186 192
e 186 193
e 186 194
e 186 195
e 186 196
e 186 197
e 186 198
e 186 199
e 200 201
e 200 202
e 200 203
e 200 204
e 200 205
e 200 206
e 200 207
e 200 208
e 200 209
e 200 210
e 200 211
e 200 212
e 200 213
e 200 214
e 200 215
e 200 216
e 200 217
e 200 218
e 200 219
e 200 220
e 200 221
e 200 222
e 200 223
e 200 224
e 200 225
e 200 226
e 200 227
e 228 229
e 228 230
e 228 231
e 228 232
e 228 233
e 228 234
e 228 235
e 228 236
e 228 237
e 228 238
e 228 239
e 228 240
e 241 242
e 241 243
e 241 244
e 241 245
e 241 246
e 241 247
e 241 248
e 241 249
e 241 250
e 241 251
e 241 252
e 241 253
e 241 254
e 241 255
e 241 256
e 241 257
e 241 258
e 241 259
e 241 260
e 241 261
e 241 262
e 241 263
e 241 264
e 241 265
e 241 266
e 241 267
e 268 269
e 268 270
e 268 271
e 268 272
e 268 273
e 268 274
e 268 275
e 268 276
e 268 277
e 268 278
e 268 279
e 268 280
e 268 281
e 268 282
e 268 283
e 268 284
e 268 285
e 268 286
e 287 288
e 287 289
e 287 290
e 287 291
e 287 292
e 287 293
e 287 294
e 287 295
e 287 296
e 287 297
e 287 298
e 287 299
e 287 300
e 287 301
e 287 302
e 287 303
e 287 304
e 287 305
e 287 306
e 287 307
e 287 308
e 287 309
e 287 310
e 287 311
e 287 312
e 287 313
e 287 314
e 287 315
e 287 316
e 317 318
e 317 319
e 317 320
e 317 321
e 317 322
e 317 323
e 317 324
e 317 325
e 317 326
e 317 327
e 317 328
e 317 329
e 317 330
e 317 331
e 317 332
e 317 333
e 317 334
e 317 335
e 317 336
e 317 337
e 317 338
e 317 339
e 317 340
e 317 341
e 317 342
e 317 343
e 317 344
e 317 345
